
%FILE DATA:	Soccer Computational Problem for MiniZinc Models	%
%AUTHOR:	Jack Wall	%
%CONTACT:  	116397063@umail.ucc.ie			%
%LAST UPDATE:	03/03/2020, 12:29:48						%
%DESCRIPTION: 	60 games played with 30 games left				%


n=10; %number of teams

%Games to play
games=[|8,3|8,6|8,1|10,5|9,10|6,4|6,9|10,4|7,8|6,7|5,2|7,5|7,9|9,2|7,4|1,8|7,3|3,2|10,2|6,8|9,5|4,1|6,1|3,6|1,4|7,1|9,7|3,10|8,4|5,7|];

%Initial points
iPoints=[15,20,20,17,22,10,14,19,8,15];

%POSITION CONSTRAINTS
% [|teamID, operator, position|...]
% operators index:
%  1 for =  operator
%  2 for >  operator
%  3 for >= operator
%  4 for <  operator
%  5 for <= operator
positionConstraints=[|8,1,1|7,5,2|];